n = 14;
lu = [|-54, -8
      |-33, -21
      |-36, 62
      |-95, 53
      |-193, -78
      |-141, -65
      |-75, 96
      |114, 179
      |-97, 155
      |66, 121
      |-186, -17
      |-80, 50
      |-108, -75
      |-95, 113|];
